KP_1000_subset_sum
capacity	251561
nb_items	1000
item	value	weight
0	770	770
1	577	577
2	245	245
3	98	98
4	986	986
5	597	597
6	795	795
7	761	761
8	484	484
9	518	518
10	574	574
11	993	993
12	729	729
13	613	613
14	802	802
15	743	743
16	655	655
17	733	733
18	966	966
19	828	828
20	902	902
21	800	800
22	800	800
23	658	658
24	957	957
25	49	49
26	752	752
27	738	738
28	388	388
29	473	473
30	973	973
31	850	850
32	109	109
33	102	102
34	934	934
35	19	19
36	201	201
37	759	759
38	130	130
39	383	383
40	893	893
41	198	198
42	243	243
43	84	84
44	298	298
45	600	600
46	180	180
47	77	77
48	89	89
49	514	514
50	889	889
51	783	783
52	482	482
53	307	307
54	10	10
55	6	6
56	728	728
57	482	482
58	422	422
59	636	636
60	479	479
61	486	486
62	816	816
63	589	589
64	669	669
65	420	420
66	282	282
67	460	460
68	880	880
69	928	928
70	368	368
71	50	50
72	587	587
73	369	369
74	582	582
75	452	452
76	862	862
77	248	248
78	992	992
79	530	530
80	241	241
81	875	875
82	68	68
83	731	731
84	856	856
85	298	298
86	195	195
87	701	701
88	691	691
89	341	341
90	108	108
91	135	135
92	84	84
93	62	62
94	647	647
95	2	2
96	981	981
97	946	946
98	262	262
99	226	226
100	783	783
101	585	585
102	187	187
103	346	346
104	423	423
105	671	671
106	493	493
107	71	71
108	539	539
109	733	733
110	177	177
111	33	33
112	816	816
113	101	101
114	906	906
115	158	158
116	760	760
117	956	956
118	268	268
119	872	872
120	658	658
121	686	686
122	827	827
123	575	575
124	688	688
125	902	902
126	619	619
127	280	280
128	334	334
129	341	341
130	483	483
131	384	384
132	398	398
133	192	192
134	44	44
135	97	97
136	407	407
137	566	566
138	853	853
139	334	334
140	865	865
141	703	703
142	778	778
143	246	246
144	142	142
145	989	989
146	731	731
147	621	621
148	27	27
149	657	657
150	225	225
151	1000	1000
152	817	817
153	240	240
154	879	879
155	945	945
156	490	490
157	443	443
158	915	915
159	267	267
160	656	656
161	816	816
162	44	44
163	512	512
164	50	50
165	228	228
166	115	115
167	813	813
168	319	319
169	166	166
170	883	883
171	648	648
172	578	578
173	713	713
174	225	225
175	885	885
176	808	808
177	254	254
178	892	892
179	798	798
180	755	755
181	593	593
182	283	283
183	62	62
184	303	303
185	49	49
186	693	693
187	358	358
188	498	498
189	669	669
190	968	968
191	847	847
192	288	288
193	546	546
194	396	396
195	390	390
196	730	730
197	572	572
198	539	539
199	159	159
200	506	506
201	915	915
202	675	675
203	384	384
204	131	131
205	758	758
206	927	927
207	680	680
208	46	46
209	428	428
210	760	760
211	858	858
212	996	996
213	165	165
214	353	353
215	430	430
216	288	288
217	11	11
218	866	866
219	717	717
220	672	672
221	910	910
222	652	652
223	494	494
224	308	308
225	753	753
226	727	727
227	238	238
228	880	880
229	56	56
230	676	676
231	245	245
232	510	510
233	709	709
234	799	799
235	242	242
236	272	272
237	301	301
238	749	749
239	744	744
240	203	203
241	697	697
242	528	528
243	387	387
244	530	530
245	661	661
246	151	151
247	256	256
248	226	226
249	862	862
250	578	578
251	565	565
252	747	747
253	992	992
254	73	73
255	359	359
256	257	257
257	385	385
258	390	390
259	811	811
260	515	515
261	178	178
262	834	834
263	600	600
264	70	70
265	854	854
266	595	595
267	492	492
268	925	925
269	103	103
270	405	405
271	857	857
272	191	191
273	404	404
274	178	178
275	531	531
276	615	615
277	422	422
278	703	703
279	291	291
280	328	328
281	295	295
282	14	14
283	230	230
284	235	235
285	330	330
286	991	991
287	943	943
288	703	703
289	466	466
290	112	112
291	355	355
292	187	187
293	708	708
294	745	745
295	204	204
296	372	372
297	472	472
298	700	700
299	604	604
300	374	374
301	33	33
302	718	718
303	346	346
304	411	411
305	925	925
306	793	793
307	130	130
308	56	56
309	160	160
310	738	738
311	996	996
312	703	703
313	604	604
314	888	888
315	475	475
316	877	877
317	301	301
318	712	712
319	285	285
320	883	883
321	507	507
322	549	549
323	11	11
324	341	341
325	163	163
326	98	98
327	415	415
328	736	736
329	831	831
330	723	723
331	997	997
332	131	131
333	898	898
334	706	706
335	265	265
336	703	703
337	143	143
338	321	321
339	308	308
340	487	487
341	561	561
342	5	5
343	671	671
344	72	72
345	450	450
346	110	110
347	61	61
348	924	924
349	121	121
350	95	95
351	556	556
352	379	379
353	84	84
354	382	382
355	656	656
356	743	743
357	635	635
358	866	866
359	745	745
360	857	857
361	998	998
362	613	613
363	745	745
364	653	653
365	109	109
366	278	278
367	206	206
368	619	619
369	938	938
370	216	216
371	803	803
372	617	617
373	270	270
374	934	934
375	11	11
376	770	770
377	869	869
378	211	211
379	751	751
380	228	228
381	9	9
382	767	767
383	909	909
384	899	899
385	130	130
386	500	500
387	77	77
388	478	478
389	108	108
390	275	275
391	448	448
392	473	473
393	455	455
394	49	49
395	590	590
396	288	288
397	823	823
398	893	893
399	966	966
400	770	770
401	770	770
402	596	596
403	498	498
404	195	195
405	574	574
406	350	350
407	376	376
408	20	20
409	416	416
410	470	470
411	946	946
412	86	86
413	162	162
414	463	463
415	50	50
416	46	46
417	552	552
418	438	438
419	624	624
420	92	92
421	988	988
422	142	142
423	76	76
424	299	299
425	82	82
426	911	911
427	126	126
428	331	331
429	109	109
430	14	14
431	352	352
432	704	704
433	571	571
434	549	549
435	535	535
436	969	969
437	313	313
438	676	676
439	134	134
440	884	884
441	844	844
442	796	796
443	556	556
444	712	712
445	206	206
446	367	367
447	909	909
448	779	779
449	55	55
450	473	473
451	662	662
452	772	772
453	775	775
454	41	41
455	460	460
456	714	714
457	427	427
458	17	17
459	444	444
460	377	377
461	983	983
462	592	592
463	101	101
464	979	979
465	621	621
466	606	606
467	743	743
468	921	921
469	483	483
470	971	971
471	256	256
472	987	987
473	878	878
474	123	123
475	462	462
476	667	667
477	786	786
478	900	900
479	777	777
480	627	627
481	328	328
482	296	296
483	29	29
484	939	939
485	469	469
486	915	915
487	52	52
488	536	536
489	887	887
490	417	417
491	803	803
492	479	479
493	86	86
494	377	377
495	725	725
496	857	857
497	677	677
498	393	393
499	553	553
500	777	777
501	931	931
502	688	688
503	228	228
504	335	335
505	42	42
506	806	806
507	247	247
508	706	706
509	188	188
510	464	464
511	901	901
512	705	705
513	361	361
514	340	340
515	392	392
516	564	564
517	849	849
518	790	790
519	671	671
520	691	691
521	14	14
522	835	835
523	899	899
524	229	229
525	110	110
526	624	624
527	388	388
528	689	689
529	235	235
530	419	419
531	868	868
532	37	37
533	489	489
534	666	666
535	50	50
536	489	489
537	965	965
538	430	430
539	172	172
540	627	627
541	531	531
542	66	66
543	711	711
544	265	265
545	292	292
546	458	458
547	804	804
548	500	500
549	699	699
550	374	374
551	269	269
552	806	806
553	902	902
554	823	823
555	739	739
556	59	59
557	995	995
558	723	723
559	573	573
560	955	955
561	648	648
562	391	391
563	291	291
564	668	668
565	162	162
566	54	54
567	382	382
568	903	903
569	3	3
570	121	121
571	809	809
572	5	5
573	355	355
574	996	996
575	880	880
576	500	500
577	7	7
578	342	342
579	240	240
580	203	203
581	693	693
582	620	620
583	383	383
584	62	62
585	978	978
586	58	58
587	905	905
588	820	820
589	575	575
590	910	910
591	982	982
592	454	454
593	503	503
594	687	687
595	302	302
596	25	25
597	314	314
598	526	526
599	78	78
600	869	869
601	584	584
602	403	403
603	988	988
604	213	213
605	279	279
606	135	135
607	343	343
608	739	739
609	855	855
610	500	500
611	33	33
612	1	1
613	519	519
614	875	875
615	297	297
616	991	991
617	904	904
618	521	521
619	981	981
620	934	934
621	850	850
622	551	551
623	332	332
624	837	837
625	322	322
626	39	39
627	85	85
628	511	511
629	765	765
630	20	20
631	675	675
632	346	346
633	907	907
634	742	742
635	290	290
636	218	218
637	585	585
638	931	931
639	624	624
640	206	206
641	48	48
642	861	861
643	772	772
644	20	20
645	787	787
646	606	606
647	797	797
648	643	643
649	476	476
650	475	475
651	986	986
652	644	644
653	110	110
654	994	994
655	481	481
656	175	175
657	636	636
658	346	346
659	51	51
660	198	198
661	831	831
662	870	870
663	538	538
664	676	676
665	547	547
666	922	922
667	502	502
668	862	862
669	119	119
670	83	83
671	620	620
672	971	971
673	612	612
674	779	779
675	754	754
676	793	793
677	973	973
678	684	684
679	566	566
680	920	920
681	727	727
682	530	530
683	330	330
684	101	101
685	24	24
686	233	233
687	196	196
688	968	968
689	634	634
690	215	215
691	318	318
692	243	243
693	664	664
694	309	309
695	875	875
696	170	170
697	120	120
698	385	385
699	224	224
700	85	85
701	165	165
702	222	222
703	499	499
704	454	454
705	961	961
706	734	734
707	221	221
708	41	41
709	963	963
710	20	20
711	11	11
712	183	183
713	68	68
714	490	490
715	218	218
716	582	582
717	503	503
718	160	160
719	574	574
720	148	148
721	339	339
722	549	549
723	772	772
724	388	388
725	935	935
726	828	828
727	604	604
728	88	88
729	854	854
730	393	393
731	472	472
732	410	410
733	322	322
734	357	357
735	851	851
736	939	939
737	283	283
738	296	296
739	703	703
740	286	286
741	774	774
742	549	549
743	219	219
744	609	609
745	750	750
746	113	113
747	457	457
748	563	563
749	473	473
750	770	770
751	31	31
752	234	234
753	532	532
754	609	609
755	335	335
756	800	800
757	627	627
758	848	848
759	385	385
760	409	409
761	686	686
762	241	241
763	151	151
764	157	157
765	718	718
766	891	891
767	250	250
768	427	427
769	9	9
770	928	928
771	393	393
772	927	927
773	60	60
774	107	107
775	60	60
776	887	887
777	931	931
778	641	641
779	863	863
780	666	666
781	129	129
782	620	620
783	295	295
784	520	520
785	351	351
786	648	648
787	411	411
788	737	737
789	198	198
790	420	420
791	960	960
792	85	85
793	889	889
794	398	398
795	100	100
796	157	157
797	262	262
798	839	839
799	967	967
800	575	575
801	512	512
802	619	619
803	410	410
804	505	505
805	313	313
806	143	143
807	839	839
808	183	183
809	582	582
810	438	438
811	826	826
812	254	254
813	788	788
814	848	848
815	381	381
816	12	12
817	713	713
818	111	111
819	684	684
820	801	801
821	416	416
822	698	698
823	293	293
824	23	23
825	979	979
826	773	773
827	310	310
828	511	511
829	659	659
830	184	184
831	794	794
832	688	688
833	565	565
834	399	399
835	650	650
836	587	587
837	582	582
838	410	410
839	167	167
840	575	575
841	254	254
842	702	702
843	936	936
844	917	917
845	218	218
846	877	877
847	605	605
848	68	68
849	951	951
850	657	657
851	219	219
852	267	267
853	261	261
854	908	908
855	917	917
856	545	545
857	772	772
858	890	890
859	7	7
860	418	418
861	781	781
862	66	66
863	78	78
864	76	76
865	78	78
866	15	15
867	640	640
868	922	922
869	733	733
870	296	296
871	485	485
872	605	605
873	629	629
874	423	423
875	428	428
876	899	899
877	847	847
878	775	775
879	823	823
880	571	571
881	977	977
882	215	215
883	166	166
884	176	176
885	12	12
886	615	615
887	740	740
888	959	959
889	903	903
890	329	329
891	214	214
892	623	623
893	255	255
894	424	424
895	259	259
896	680	680
897	707	707
898	582	582
899	397	397
900	284	284
901	176	176
902	441	441
903	795	795
904	288	288
905	48	48
906	225	225
907	90	90
908	882	882
909	159	159
910	258	258
911	697	697
912	69	69
913	932	932
914	51	51
915	360	360
916	399	399
917	649	649
918	757	757
919	747	747
920	681	681
921	900	900
922	824	824
923	253	253
924	65	65
925	726	726
926	716	716
927	502	502
928	587	587
929	899	899
930	225	225
931	80	80
932	103	103
933	572	572
934	136	136
935	237	237
936	655	655
937	564	564
938	455	455
939	139	139
940	237	237
941	687	687
942	504	504
943	749	749
944	748	748
945	547	547
946	634	634
947	291	291
948	115	115
949	169	169
950	723	723
951	488	488
952	30	30
953	588	588
954	785	785
955	869	869
956	982	982
957	758	758
958	794	794
959	32	32
960	813	813
961	305	305
962	388	388
963	220	220
964	871	871
965	239	239
966	656	656
967	91	91
968	199	199
969	88	88
970	920	920
971	257	257
972	435	435
973	229	229
974	358	358
975	659	659
976	532	532
977	998	998
978	543	543
979	782	782
980	269	269
981	235	235
982	341	341
983	804	804
984	281	281
985	688	688
986	637	637
987	300	300
988	46	46
989	688	688
990	394	394
991	23	23
992	875	875
993	649	649
994	21	21
995	928	928
996	841	841
997	207	207
998	247	247
999	644	644